c Random generated cnf formula, satisfiable: true
p cnf 10 50
2 5 7 0
4 -9 8 0
-3 6 -4 0
-5 1 9 0
-2 -9 3 0
4 -9 1 0
-6 10 -8 0
7 -9 3 0
-5 -2 6 0
3 5 -6 0
-1 9 -8 0
4 1 -9 0
-6 10 8 0
-1 -10 -9 0
10 -1 5 0
8 4 -10 0
9 3 7 0
-9 2 -7 0
-8 1 6 0
5 -10 -9 0
-10 -4 -1 0
-2 -1 10 0
5 9 8 0
2 7 -1 0
-3 -5 2 0
-6 -1 -10 0
7 9 -3 0
-3 -2 4 0
-5 -8 6 0
-5 3 -8 0
-9 6 -2 0
-6 -5 8 0
-7 -3 -2 0
9 6 -3 0
9 -5 10 0
-7 -4 -2 0
3 9 7 0
9 -1 2 0
-2 -7 8 0
9 6 -2 0
5 -2 -6 0
7 10 -4 0
-9 2 6 0
-9 -4 -10 0
7 -8 -3 0
-7 3 -4 0
1 8 -7 0
6 -4 -7 0
5 2 -4 0
-2 8 -5 0
